instances/p2/p2_15_3-0.txt
{
	"num_strings": 15,
	"alphabet": "ACGT",
	"strings": [
		"T",
		"G",
		"A",
		"T",
		"G",
		"T",
		"TT",
		"A",
		"C",
		"GCG",
		"G",
		"G",
		"A",
		"C",
		""
	],
	"str_length":[1,1,1,1,1,1,2,1,1,3,1,1,1,1,0]
}